benchmarks/VRPTW/TSPTW/solution/n40w100.003.txt.solution
1 23 27 17 14 18 35 26 3 24 31 19 15 13 9 16 4 22 40 36 25 32 30 5 8 2 29 39 38 28 11 21 10 7 12 34 6 41 37 33 20 
364
